ilp_joint/output/boiling_ilp.lp
Maximize
  0.008555763998449 Z_152_3_0 + 0.00940954133645315 Z_152_3_1
   + 0.1331854147591623 Z_152_3_2 + 0.00151373359294124 Z_152_3_3
   + 9.3048688026230457e-04 Z_152_12_0 + 0.1157397157759771 Z_152_12_1
   + 0.6301328825592214 Z_152_12_2 + 0.0292361489262815 Z_152_12_3
   + 0.0135921589735115 Z_152_1_0 + 0.0249547824908902 Z_152_1_1
   + 0.00253124286619795 Z_152_1_2 + 0.0538959806470616 Z_152_1_3
   + 0.0507471079643743 Z_152_2_0 + 0.1945166834907012 Z_152_2_1
   + 0.00737979270850642 Z_152_2_2 + 0.315023080473297 Z_152_2_3
   + 0.0307822308624383 Z_152_0_0 + 0.0310685079338651 Z_152_0_1
   + 0.0268905463989049 Z_152_0_2 + 0.0584126584524861 Z_152_0_3
   + 0.00953348781638469 Z_670_0_0 + 0.00754542461497955 Z_670_0_1
   + 0.0170281353927703 Z_670_0_2 + 0.8215413420444079 Z_670_0_3
   + 7.6436315829524486e-04 Z_44_0_0 + 0.0219676997626533 Z_44_0_1
   + 0.2279885560115573 Z_44_0_2 + 0.0436783241824821 Z_44_0_3
   + 0.00045572 Z_437_0_0 + 0.0176306007542365 Z_437_0_1
   + 0.4438655267541283 Z_437_0_2 + 0.0400789474262588 Z_437_0_3
   + 0.0113050828849938 Z_269_2_0 + 0.00181011511828657 Z_269_2_1
   + 0.0107331650837005 Z_269_2_2 + 0.1029809405205269 Z_269_2_3
   + 0.00224842308127086 Z_269_4_0 + 0.00971016454666546 Z_269_4_1
   + 0.0125648601920361 Z_269_4_2 + 0.7934226904719893 Z_269_4_3
   + 0.0668361843727208 Z_269_6_0 + 0.0380514846901389 Z_269_6_1
   + 0.00309485245533691 Z_269_6_2 + 0.0416313431758885 Z_269_6_3
   + 0.0150116483321771 Z_269_1_0 + 0.00530277199632083 Z_269_1_1
   + 0.0164954543981253 Z_269_1_2 + 0.0176968496171448 Z_269_1_3
   + 0.0931822141405304 Z_269_7_0 + 0.0786363986451757 Z_269_7_1
   + 0.00546153560660277 Z_269_7_2 + 0.2965666612964711 Z_269_7_3
   + 0.00224842308127086 Z_269_3_0 + 0.00971016454666546 Z_269_3_1
   + 0.0125648601920361 Z_269_3_2 + 0.7934226904719893 Z_269_3_3
   + 0.0275953966267016 Z_269_0_0 + 0.00908508366945473 Z_269_0_1
   + 0.0444165425463373 Z_269_0_2 + 0.3986005669728009 Z_269_0_3
   + 0.0931822141405304 Z_269_8_0 + 0.0786363986451757 Z_269_8_1
   + 0.00546153560660277 Z_269_8_2 + 0.2965666612964711 Z_269_8_3
   + 0.0488945001080417 Z_269_5_0 + 0.0857773024311831 Z_269_5_1
   + 0.00628991076842771 Z_269_5_2 + 0.0484977613847253 Z_269_5_3
   + 0.0154675878237547 Z_15_0_0 + 0.0957383802004794 Z_15_0_1
   + 0.0114561213171786 Z_15_0_2 + 0.0270400979493896 Z_15_0_3
   + 0.0039146581792098 Z_650_0_0 + 0.01378209377272 Z_650_0_1
   + 0.2544777409405225 Z_650_0_2 + 0.8166927823428454 Z_650_0_3
   + 5.526718700021527e-04 Z_477_0_0 + 0.00421220500178167 Z_477_0_1
   + 0.477388035185338 Z_477_0_2 + 0.1716407051454676 Z_477_0_3 + [
   2.2015e-05 Z_152_3_0 * Z_670_0_0 + 0.4 Z_152_3_0 * Z_269_1_0
   + 2.2015e-05 Z_152_3_1 * Z_670_0_1 + 0.4 Z_152_3_1 * Z_269_1_1
   + 2.2015e-05 Z_152_3_2 * Z_670_0_2 + 0.4 Z_152_3_2 * Z_269_1_2
   + 2.2015e-05 Z_152_3_3 * Z_670_0_3 + 0.4 Z_152_3_3 * Z_269_1_3
   + 2.2015e-05 Z_152_1_0 * Z_670_0_0
   + 0.2814290296462305 Z_152_1_0 * Z_269_1_0
   + 2.2015e-05 Z_152_1_1 * Z_670_0_1
   + 0.2814290296462305 Z_152_1_1 * Z_269_1_1
   + 2.2015e-05 Z_152_1_2 * Z_670_0_2
   + 0.2814290296462305 Z_152_1_2 * Z_269_1_2
   + 2.2015e-05 Z_152_1_3 * Z_670_0_3
   + 0.2814290296462305 Z_152_1_3 * Z_269_1_3
   + 1.3631421858048204e-04 Z_152_2_0 * Z_670_0_0
   + 2.77778e-05 Z_152_2_0 * Z_44_0_0
   + 1.3631421858048204e-04 Z_152_2_1 * Z_670_0_1
   + 2.77778e-05 Z_152_2_1 * Z_44_0_1
   + 1.3631421858048204e-04 Z_152_2_2 * Z_670_0_2
   + 2.77778e-05 Z_152_2_2 * Z_44_0_2
   + 1.3631421858048204e-04 Z_152_2_3 * Z_670_0_3
   + 2.77778e-05 Z_152_2_3 * Z_44_0_3 + 9.68347e-06 Z_152_0_0 * Z_269_4_0
   + 2.17264e-06 Z_152_0_0 * Z_269_3_0 + 2.17264e-06 Z_152_0_0 * Z_269_8_0
   + 0.4 Z_152_0_0 * Z_477_0_0 + 9.68347e-06 Z_152_0_1 * Z_269_4_1
   + 2.17264e-06 Z_152_0_1 * Z_269_3_1 + 2.17264e-06 Z_152_0_1 * Z_269_8_1
   + 0.4 Z_152_0_1 * Z_477_0_1 + 9.68347e-06 Z_152_0_2 * Z_269_4_2
   + 2.17264e-06 Z_152_0_2 * Z_269_3_2 + 2.17264e-06 Z_152_0_2 * Z_269_8_2
   + 0.4 Z_152_0_2 * Z_477_0_2 + 9.68347e-06 Z_152_0_3 * Z_269_4_3
   + 2.17264e-06 Z_152_0_3 * Z_269_3_3 + 2.17264e-06 Z_152_0_3 * Z_269_8_3
   + 0.4 Z_152_0_3 * Z_477_0_3 + 0.0041736011287586 Z_670_0_0 * Z_269_4_0
   + 0.1206138906722683 Z_670_0_0 * Z_269_6_0
   + 0.1185709703537694 Z_670_0_0 * Z_269_1_0
   + 0.0367287244181937 Z_670_0_0 * Z_269_3_0 + 0.4 Z_670_0_0 * Z_269_0_0
   + 0.0727015305153506 Z_670_0_0 * Z_269_8_0
   + 0.1318437459664392 Z_670_0_0 * Z_269_5_0
   + 0.0735486570470683 Z_670_0_0 * Z_650_0_0
   + 0.0041736011287586 Z_670_0_1 * Z_269_4_1
   + 0.1206138906722683 Z_670_0_1 * Z_269_6_1
   + 0.1185709703537694 Z_670_0_1 * Z_269_1_1
   + 0.0367287244181937 Z_670_0_1 * Z_269_3_1 + 0.4 Z_670_0_1 * Z_269_0_1
   + 0.0727015305153506 Z_670_0_1 * Z_269_8_1
   + 0.1318437459664392 Z_670_0_1 * Z_269_5_1
   + 0.0735486570470683 Z_670_0_1 * Z_650_0_1
   + 0.0041736011287586 Z_670_0_2 * Z_269_4_2
   + 0.1206138906722683 Z_670_0_2 * Z_269_6_2
   + 0.1185709703537694 Z_670_0_2 * Z_269_1_2
   + 0.0367287244181937 Z_670_0_2 * Z_269_3_2 + 0.4 Z_670_0_2 * Z_269_0_2
   + 0.0727015305153506 Z_670_0_2 * Z_269_8_2
   + 0.1318437459664392 Z_670_0_2 * Z_269_5_2
   + 0.0735486570470683 Z_670_0_2 * Z_650_0_2
   + 0.0041736011287586 Z_670_0_3 * Z_269_4_3
   + 0.1206138906722683 Z_670_0_3 * Z_269_6_3
   + 0.1185709703537694 Z_670_0_3 * Z_269_1_3
   + 0.0367287244181937 Z_670_0_3 * Z_269_3_3 + 0.4 Z_670_0_3 * Z_269_0_3
   + 0.0727015305153506 Z_670_0_3 * Z_269_8_3
   + 0.1318437459664392 Z_670_0_3 * Z_269_5_3
   + 0.0735486570470683 Z_670_0_3 * Z_650_0_3
   + 9.68347e-06 Z_269_4_0 * Z_477_0_0 + 9.68347e-06 Z_269_4_1 * Z_477_0_1
   + 9.68347e-06 Z_269_4_2 * Z_477_0_2 + 9.68347e-06 Z_269_4_3 * Z_477_0_3
   + 0.1206138906722683 Z_269_6_0 * Z_650_0_0
   + 0.1206138906722683 Z_269_6_1 * Z_650_0_1
   + 0.1206138906722683 Z_269_6_2 * Z_650_0_2
   + 0.1206138906722683 Z_269_6_3 * Z_650_0_3
   + 0.1185709703537694 Z_269_1_0 * Z_650_0_0
   + 0.1185709703537694 Z_269_1_1 * Z_650_0_1
   + 0.1185709703537694 Z_269_1_2 * Z_650_0_2
   + 0.1185709703537694 Z_269_1_3 * Z_650_0_3
   + 0.0492531355403821 Z_269_3_0 * Z_650_0_0
   + 2.17264e-06 Z_269_3_0 * Z_477_0_0
   + 0.0492531355403821 Z_269_3_1 * Z_650_0_1
   + 2.17264e-06 Z_269_3_1 * Z_477_0_1
   + 0.0492531355403821 Z_269_3_2 * Z_650_0_2
   + 2.17264e-06 Z_269_3_2 * Z_477_0_2
   + 0.0492531355403821 Z_269_3_3 * Z_650_0_3
   + 2.17264e-06 Z_269_3_3 * Z_477_0_3
   + 0.0492531355403821 Z_269_8_0 * Z_650_0_0
   + 2.17264e-06 Z_269_8_0 * Z_477_0_0
   + 0.0492531355403821 Z_269_8_1 * Z_650_0_1
   + 2.17264e-06 Z_269_8_1 * Z_477_0_1
   + 0.0492531355403821 Z_269_8_2 * Z_650_0_2
   + 2.17264e-06 Z_269_8_2 * Z_477_0_2
   + 0.0492531355403821 Z_269_8_3 * Z_650_0_3
   + 2.17264e-06 Z_269_8_3 * Z_477_0_3
   + 0.1318437459664392 Z_269_5_0 * Z_650_0_0
   + 0.1318437459664392 Z_269_5_1 * Z_650_0_1
   + 0.1318437459664392 Z_269_5_2 * Z_650_0_2
   + 0.1318437459664392 Z_269_5_3 * Z_650_0_3 ] / 2 
Subject To
 constraint1_1523: Z_152_3_0 + Z_152_3_1 + Z_152_3_2 + Z_152_3_3 <= 1
 constraint1_15212: Z_152_12_0 + Z_152_12_1 + Z_152_12_2 + Z_152_12_3 <= 1
 constraint1_1521: Z_152_1_0 + Z_152_1_1 + Z_152_1_2 + Z_152_1_3 <= 1
 constraint1_1522: Z_152_2_0 + Z_152_2_1 + Z_152_2_2 + Z_152_2_3 <= 1
 constraint1_1520: Z_152_0_0 + Z_152_0_1 + Z_152_0_2 + Z_152_0_3 <= 1
 constraint1_6700: Z_670_0_0 + Z_670_0_1 + Z_670_0_2 + Z_670_0_3 <= 1
 constraint1_440: Z_44_0_0 + Z_44_0_1 + Z_44_0_2 + Z_44_0_3 <= 1
 constraint1_4370: Z_437_0_0 + Z_437_0_1 + Z_437_0_2 + Z_437_0_3 <= 1
 constraint1_2692: Z_269_2_0 + Z_269_2_1 + Z_269_2_2 + Z_269_2_3 <= 1
 constraint1_2694: Z_269_4_0 + Z_269_4_1 + Z_269_4_2 + Z_269_4_3 <= 1
 constraint1_2696: Z_269_6_0 + Z_269_6_1 + Z_269_6_2 + Z_269_6_3 <= 1
 constraint1_2691: Z_269_1_0 + Z_269_1_1 + Z_269_1_2 + Z_269_1_3 <= 1
 constraint1_2697: Z_269_7_0 + Z_269_7_1 + Z_269_7_2 + Z_269_7_3 <= 1
 constraint1_2693: Z_269_3_0 + Z_269_3_1 + Z_269_3_2 + Z_269_3_3 <= 1
 constraint1_2690: Z_269_0_0 + Z_269_0_1 + Z_269_0_2 + Z_269_0_3 <= 1
 constraint1_2698: Z_269_8_0 + Z_269_8_1 + Z_269_8_2 + Z_269_8_3 <= 1
 constraint1_2695: Z_269_5_0 + Z_269_5_1 + Z_269_5_2 + Z_269_5_3 <= 1
 constraint1_150: Z_15_0_0 + Z_15_0_1 + Z_15_0_2 + Z_15_0_3 <= 1
 constraint1_6500: Z_650_0_0 + Z_650_0_1 + Z_650_0_2 + Z_650_0_3 <= 1
 constraint1_4770: Z_477_0_0 + Z_477_0_1 + Z_477_0_2 + Z_477_0_3 <= 1
 constraint2_1520: Z_152_3_0 + Z_152_12_0 + Z_152_1_0 + Z_152_2_0
   + Z_152_0_0 <= 1
 constraint2_1521: Z_152_3_1 + Z_152_12_1 + Z_152_1_1 + Z_152_2_1
   + Z_152_0_1 <= 1
 constraint2_1522: Z_152_3_2 + Z_152_12_2 + Z_152_1_2 + Z_152_2_2
   + Z_152_0_2 <= 1
 constraint2_1523: Z_152_3_3 + Z_152_12_3 + Z_152_1_3 + Z_152_2_3
   + Z_152_0_3 <= 1
 constraint2_6700: Z_670_0_0 <= 1
 constraint2_6701: Z_670_0_1 <= 1
 constraint2_6702: Z_670_0_2 <= 1
 constraint2_6703: Z_670_0_3 <= 1
 constraint2_440: Z_44_0_0 <= 1
 constraint2_441: Z_44_0_1 <= 1
 constraint2_442: Z_44_0_2 <= 1
 constraint2_443: Z_44_0_3 <= 1
 constraint2_4370: Z_437_0_0 <= 1
 constraint2_4371: Z_437_0_1 <= 1
 constraint2_4372: Z_437_0_2 <= 1
 constraint2_4373: Z_437_0_3 <= 1
 constraint2_2690: Z_269_2_0 + Z_269_4_0 + Z_269_6_0 + Z_269_1_0
   + Z_269_7_0 + Z_269_3_0 + Z_269_0_0 + Z_269_8_0 + Z_269_5_0 <= 1
 constraint2_2691: Z_269_2_1 + Z_269_4_1 + Z_269_6_1 + Z_269_1_1
   + Z_269_7_1 + Z_269_3_1 + Z_269_0_1 + Z_269_8_1 + Z_269_5_1 <= 1
 constraint2_2692: Z_269_2_2 + Z_269_4_2 + Z_269_6_2 + Z_269_1_2
   + Z_269_7_2 + Z_269_3_2 + Z_269_0_2 + Z_269_8_2 + Z_269_5_2 <= 1
 constraint2_2693: Z_269_2_3 + Z_269_4_3 + Z_269_6_3 + Z_269_1_3
   + Z_269_7_3 + Z_269_3_3 + Z_269_0_3 + Z_269_8_3 + Z_269_5_3 <= 1
 constraint2_150: Z_15_0_0 <= 1
 constraint2_151: Z_15_0_1 <= 1
 constraint2_152: Z_15_0_2 <= 1
 constraint2_153: Z_15_0_3 <= 1
 constraint2_6500: Z_650_0_0 <= 1
 constraint2_6501: Z_650_0_1 <= 1
 constraint2_6502: Z_650_0_2 <= 1
 constraint2_6503: Z_650_0_3 <= 1
 constraint2_4770: Z_477_0_0 <= 1
 constraint2_4771: Z_477_0_1 <= 1
 constraint2_4772: Z_477_0_2 <= 1
 constraint2_4773: Z_477_0_3 <= 1
Bounds
Binaries
 Z_152_3_0 Z_152_3_1 Z_152_3_2 Z_152_3_3 Z_152_12_0 Z_152_12_1 Z_152_12_2
 Z_152_12_3 Z_152_1_0 Z_152_1_1 Z_152_1_2 Z_152_1_3 Z_152_2_0 Z_152_2_1
 Z_152_2_2 Z_152_2_3 Z_152_0_0 Z_152_0_1 Z_152_0_2 Z_152_0_3 Z_670_0_0
 Z_670_0_1 Z_670_0_2 Z_670_0_3 Z_44_0_0 Z_44_0_1 Z_44_0_2 Z_44_0_3
 Z_437_0_0 Z_437_0_1 Z_437_0_2 Z_437_0_3 Z_269_2_0 Z_269_2_1 Z_269_2_2
 Z_269_2_3 Z_269_4_0 Z_269_4_1 Z_269_4_2 Z_269_4_3 Z_269_6_0 Z_269_6_1
 Z_269_6_2 Z_269_6_3 Z_269_1_0 Z_269_1_1 Z_269_1_2 Z_269_1_3 Z_269_7_0
 Z_269_7_1 Z_269_7_2 Z_269_7_3 Z_269_3_0 Z_269_3_1 Z_269_3_2 Z_269_3_3
 Z_269_0_0 Z_269_0_1 Z_269_0_2 Z_269_0_3 Z_269_8_0 Z_269_8_1 Z_269_8_2
 Z_269_8_3 Z_269_5_0 Z_269_5_1 Z_269_5_2 Z_269_5_3 Z_15_0_0 Z_15_0_1
 Z_15_0_2 Z_15_0_3 Z_650_0_0 Z_650_0_1 Z_650_0_2 Z_650_0_3 Z_477_0_0
 Z_477_0_1 Z_477_0_2 Z_477_0_3
End
