ilp_joint/output/boiling_ilp.sol
# Solution for model boiling_srl_ilp
# Objective value = 1.8609646483466167e+00
Z_75_0_0 0
Z_75_0_1 0
Z_75_0_2 0
Z_75_0_3 1
Z_75_0_4 0
Z_44_0_0 0
Z_44_0_1 0
Z_44_0_2 1
Z_44_0_3 0
Z_44_0_4 0
Z_238_0_0 0
Z_238_0_1 0
Z_238_0_2 0
Z_238_0_3 1
Z_238_0_4 0
